c A SAT instance generated from a 3-CNF formula that had 44 clauses and 11 variables
p cnf 11 44
-5 4 -6 0
-6 -3 9 0
7 10 11 0
8 -1 7 0
7 6 -5 0
-5 -7 -11 0
4 -8 5 0
-5 3 8 0
-9 -10 8 0
7 -8 1 0
7 6 -5 0
-9 -3 -8 0
-5 -11 -9 0
-1 3 4 0
11 7 10 0
-10 8 -2 0
8 -2 -11 0
-6 -7 5 0
8 -7 -3 0
-8 9 -10 0
-3 -2 -7 0
-10 -9 -3 0
-6 -11 7 0
10 11 -4 0
-4 -9 -10 0
-8 7 -4 0
3 4 6 0
-1 2 5 0
9 -6 -8 0
-3 -11 -1 0
11 -6 -8 0
8 -3 4 0
11 -5 -6 0
10 3 2 0
11 -1 8 0
-3 -8 2 0
8 -9 7 0
-7 8 1 0
-4 2 -10 0
7 10 -9 0
-7 -5 -1 0
-8 -4 -7 0
3 -6 5 0
-10 6 -7 0
